15 2 
2801	2801	
67	613	1150	
969	634	1116	
856	249	301	
289	305	340	
188	683	1197	
96	801	804	
436	38	68	
864	248	368	
456	238	446	
503	550	1025	
253	467	790	
550	3	5	
659	253	336	
242	94	112	
83	426	504	
